c Output_time 26.03.2020 18:13:09_+0100 1585242789781803756
c ** Program information **
c program_name                          "QBRG_debug"
c version                               "0.3.20"
c date                                  "25.3.2020"
c gid_id                                "673970833836058123f633335630c185360d632e"
c author                                "Oliver Kullmann"
c url                                   "https://github.com/OKullmann/oklibrary/blob/master/Satisfiability/Transformers/Generators/Random/QBRG.cpp"
c ** Machine information **
c machine_name                          "chyna-Lenovo-G50-70"
c bogomips                              3791.08
c ** Compilation information **
c compiler_version                      "g++ 7.5.0"
c compilation_date                      "Mar_26_2020 11:16:30"
c compilation_options                   "--std=c++17 -pedantic -fmax-errors=5 -Wall -Wextra -g -D_GLIBCXX_DEBUG"
c NDEBUG                                0
c OPTIMIZE                              0
c ** Parameters **
c command-line                          "./QBRG_debug" "e40 a40 40" "142*1,1|2-2,1|3-3,1" "" "1,t" ""
c output                                "QuBlRaGe_120_142_1585242789777561027.qdimacs"
c options                               "filtered,renamed"
c num_quantifier_blocks                 3
c  quantifier_blocks                    1:e1-40 2:a41-80 3:e81-120
c num_clause-blocks                     1
c  clause-blocks                        142 * {1-40,1,1/2} | {41-80,1,1/2} | {81-120,1,1/2}
c num_e-seeds                           30+2=32
c  e-seeds                              1 0 1 0 4 120 2 40 1 40 0 40 1 142 3 1 1 1 1 2 2 2 1 1 2 3 3 1 1 2 1 1585242789777560607
p cnf 118 142
e 1 2 3 4 5 6 7 8 9 10 11 12 13 14 15 16 17 18 19 20 21 22 23 24 25 26 27 28 29 30 31 32 33 34 35 36 37 38 39 40 0
a 41 42 43 44 45 46 47 48 49 50 51 52 53 54 55 56 57 58 59 60 61 62 63 64 65 66 67 68 69 70 71 72 73 74 75 76 77 78 79 0
e 80 81 82 83 84 85 86 87 88 89 90 91 92 93 94 95 96 97 98 99 100 101 102 103 104 105 106 107 108 109 110 111 112 113 114 115 116 117 118 0
3 -52 -80 0
21 72 -80 0
21 52 80 0
21 -75 80 0
8 -54 -81 0
-30 47 81 0
26 65 81 0
39 66 81 0
-30 -74 81 0
32 -43 -82 0
-15 -56 -82 0
11 41 -83 0
28 -60 -83 0
-37 61 -83 0
-18 65 -83 0
33 -59 83 0
-23 52 -84 0
-38 58 -84 0
22 -62 -84 0
-1 -67 -84 0
36 52 84 0
-4 55 84 0
16 -63 84 0
-6 -43 -85 0
-25 41 85 0
-25 -48 85 0
20 -50 85 0
28 52 85 0
-5 54 85 0
-40 -58 86 0
-19 72 86 0
22 60 -87 0
18 70 -87 0
31 -74 -87 0
25 -56 87 0
34 -57 87 0
-24 45 -88 0
-22 -62 -88 0
27 -73 -88 0
-12 79 -88 0
-25 49 89 0
-37 54 -90 0
-9 55 -90 0
-9 -57 -90 0
-34 78 -91 0
32 -49 91 0
-13 51 91 0
12 -64 91 0
-32 62 92 0
11 58 -93 0
-38 -75 -93 0
14 -57 93 0
-35 -75 93 0
25 66 -94 0
-14 71 -94 0
-38 79 -94 0
2 58 94 0
-8 69 94 0
-16 46 -95 0
-14 61 -95 0
29 41 95 0
-30 -47 95 0
29 44 -96 0
28 -49 -96 0
-22 -52 -96 0
3 -73 -96 0
-23 -52 96 0
-36 -62 -97 0
38 59 97 0
-13 -78 97 0
1 66 -98 0
-17 -49 98 0
-38 -50 -99 0
-40 -49 99 0
-26 71 99 0
9 63 -100 0
38 -78 -100 0
-14 59 100 0
25 48 -101 0
-14 -78 101 0
15 -59 -102 0
20 61 102 0
29 77 -103 0
29 -57 103 0
24 57 103 0
-29 73 103 0
-27 -78 103 0
-7 53 -104 0
-36 -58 -104 0
-6 -42 -105 0
10 57 -105 0
-18 -54 105 0
30 60 -106 0
-31 54 106 0
-18 69 106 0
33 72 106 0
-28 -68 -107 0
-23 -69 -107 0
-21 -53 107 0
-38 55 107 0
32 54 -108 0
38 -68 108 0
7 -48 109 0
18 -77 109 0
-38 -62 110 0
30 -75 110 0
20 -45 -111 0
4 46 -111 0
22 -53 -111 0
-37 -45 111 0
4 43 -112 0
-22 44 -112 0
28 -46 -112 0
6 54 -112 0
29 -64 -113 0
34 -64 -113 0
-37 -60 113 0
-30 -66 113 0
27 65 -114 0
-38 -68 -114 0
22 -76 -114 0
-38 78 -114 0
-18 -78 114 0
-9 49 -115 0
-5 -61 -115 0
-4 -66 115 0
37 66 115 0
20 -77 115 0
-27 -54 -116 0
-18 -68 -116 0
9 76 -116 0
-36 -65 116 0
-3 -67 116 0
-12 75 116 0
14 -55 -117 0
8 79 -117 0
-4 49 117 0
-13 60 117 0
-2 43 -118 0
-12 -71 -118 0
-14 41 118 0
38 57 118 0
